
1.00000000000000
17.350100 0.000000 0.000000
0.000000 14.994300 0.000000
0.000000 0.000000 13.993100
O C H N F
4 7 8 3 1
Cartesian
5.481900 9.067700 8.174800 N
6.639600 8.156500 8.008400 C
7.669900 8.702600 6.998500 C
8.928700 7.948800 6.982800 N
9.157400 7.014000 5.989400 C
10.277100 6.292000 5.956200 C
10.516900 5.376600 5.000000 F
11.304200 6.481800 6.998100 C
12.350100 5.843800 7.022300 O
10.999200 7.427500 7.942700 N
9.850200 8.175000 8.003700 C
9.673400 8.980000 8.914000 O
6.132400 6.812100 7.494700 C
5.495500 6.630900 6.466600 O
6.470700 5.773100 8.283100 O
5.000000 9.169500 7.279800 H
5.813600 9.994300 8.440900 H
7.097000 8.012200 8.993100 H
7.253900 8.731500 5.982900 H
7.915900 9.739700 7.262200 H
8.393300 6.879700 5.229600 H
11.675600 7.576300 8.675700 H
6.030700 5.000000 7.871800 H