1299
1.000 
0.0  0.0  0.0
0.0  0.0  0.0
0.0  0.0  0.0
F   O   N   C   H   
1   4   3   7   8   
Cartesian
     5.4641000000000001791      2.3100000000000000533      0.0000000000000000000
     5.4641000000000001791     -2.6899999999999999467      0.0000000000000000000
     2.0000000000000000000      0.3099999999999999978      0.0000000000000000000
     3.7320999999999999730     -2.6899999999999999467      0.0000000000000000000
     3.7320999999999999730      3.3100000000000000533      0.0000000000000000000
     3.7320999999999999730      0.3099999999999999978      0.0000000000000000000
     5.4641000000000001791     -0.6899999999999999467      0.0000000000000000000
     2.8660000000000001030      1.8100000000000000533      0.0000000000000000000
     3.7320999999999999730     -0.6899999999999999467      0.0000000000000000000
     4.5980999999999996319     -1.1899999999999999467      0.0000000000000000000
     2.8660000000000001030      0.8100000000000000533      0.0000000000000000000
     4.5980999999999996319      0.8100000000000000533      0.0000000000000000000
     4.5980999999999996319     -2.1899999999999999467      0.0000000000000000000
     4.5980999999999996319      1.8100000000000000533      0.0000000000000000000
     3.7320999999999999730      2.3100000000000000533      0.0000000000000000000
     3.1215000000000001634     -0.5823000000000000398      0.0000000000000000000
     3.5200000000000000178     -1.2725999999999999535      0.0000000000000000000
     5.1349999999999997868     -1.5000000000000000000      0.0000000000000000000
     5.1349999999999997868      0.5000000000000000000      0.0000000000000000000
     6.0010000000000003340     -1.0000000000000000000      0.0000000000000000000
     5.4641000000000001791     -0.0700000000000000067      0.0000000000000000000
     2.3290999999999999481      2.1200000000000001066      0.0000000000000000000
     5.4641000000000001791     -3.3100000000000000533      0.0000000000000000000
